p edge 84 358
e 1 3
e 1 9
e 1 21
e 1 29
e 1 42
e 1 44
e 1 47
e 1 82
e 2 5
e 2 12
e 2 19
e 2 31
e 2 54
e 2 63
e 2 78
e 3 14
e 3 24
e 3 31
e 3 35
e 3 36
e 3 39
e 3 47
e 3 74
e 3 77
e 3 81
e 4 22
e 4 32
e 4 42
e 4 55
e 4 62
e 4 67
e 5 15
e 5 44
e 5 46
e 5 53
e 5 65
e 5 67
e 6 8
e 6 9
e 6 10
e 6 19
e 6 59
e 6 67
e 6 68
e 6 76
e 6 82
e 7 25
e 7 63
e 7 67
e 7 79
e 8 12
e 8 20
e 8 35
e 8 47
e 8 78
e 8 82
e 8 83
e 9 15
e 9 19
e 9 20
e 9 22
e 9 23
e 9 42
e 9 46
e 9 66
e 9 67
e 9 77
e 9 83
e 9 84
e 10 18
e 10 45
e 10 51
e 10 73
e 10 81
e 11 17
e 11 22
e 11 24
e 11 27
e 11 29
e 11 35
e 11 58
e 11 70
e 11 72
e 11 79
e 12 16
e 12 21
e 12 29
e 12 32
e 12 39
e 12 42
e 12 44
e 12 51
e 12 56
e 12 59
e 12 71
e 13 32
e 13 39
e 13 42
e 13 43
e 13 52
e 14 27
e 14 29
e 14 31
e 14 33
e 14 37
e 14 45
e 14 48
e 14 62
e 14 67
e 14 71
e 14 81
e 15 33
e 15 36
e 15 39
e 15 42
e 15 46
e 15 66
e 15 67
e 15 68
e 15 71
e 15 75
e 16 20
e 16 33
e 16 36
e 16 50
e 16 53
e 16 60
e 16 66
e 16 75
e 16 79
e 17 47
e 17 51
e 17 53
e 17 57
e 17 68
e 17 77
e 17 78
e 17 83
e 18 20
e 18 22
e 18 33
e 18 34
e 18 38
e 18 39
e 18 71
e 18 73
e 18 75
e 19 71
e 19 82
e 20 25
e 20 39
e 20 51
e 20 53
e 20 63
e 20 71
e 20 83
e 21 39
e 21 49
e 21 50
e 21 54
e 21 71
e 21 73
e 21 74
e 21 76
e 22 35
e 22 41
e 22 59
e 22 62
e 22 71
e 22 72
e 23 25
e 23 32
e 23 35
e 23 47
e 23 59
e 23 62
e 23 68
e 23 78
e 23 79
e 24 46
e 24 52
e 24 56
e 24 70
e 24 73
e 24 75
e 24 80
e 24 81
e 25 33
e 25 47
e 25 49
e 25 52
e 25 54
e 25 58
e 25 67
e 26 38
e 26 44
e 26 47
e 26 51
e 26 52
e 26 58
e 26 61
e 26 73
e 26 84
e 27 34
e 27 43
e 27 44
e 27 45
e 27 56
e 27 62
e 28 34
e 28 47
e 28 59
e 28 65
e 28 74
e 29 30
e 29 32
e 29 37
e 29 47
e 29 55
e 29 57
e 29 67
e 29 81
e 30 59
e 30 61
e 31 52
e 31 60
e 31 67
e 31 77
e 32 42
e 32 63
e 32 68
e 32 77
e 33 36
e 33 61
e 33 62
e 33 78
e 33 80
e 34 38
e 34 47
e 34 50
e 34 62
e 35 37
e 35 39
e 35 45
e 35 47
e 35 55
e 35 64
e 35 84
e 36 37
e 36 45
e 36 46
e 36 64
e 37 42
e 37 44
e 37 68
e 38 52
e 38 69
e 38 73
e 38 74
e 38 76
e 38 79
e 39 48
e 39 49
e 39 54
e 39 57
e 39 66
e 39 69
e 39 77
e 39 83
e 40 44
e 40 56
e 40 63
e 40 65
e 40 70
e 40 77
e 40 81
e 41 52
e 41 59
e 41 84
e 42 46
e 43 44
e 43 79
e 43 84
e 44 60
e 44 80
e 45 48
e 45 49
e 45 58
e 45 62
e 45 76
e 45 82
e 46 52
e 46 62
e 46 72
e 46 74
e 46 77
e 47 59
e 47 84
e 48 62
e 48 64
e 48 73
e 48 77
e 49 59
e 49 67
e 49 78
e 49 84
e 50 54
e 50 61
e 50 64
e 50 75
e 51 55
e 51 82
e 52 67
e 52 78
e 52 82
e 53 84
e 54 57
e 54 60
e 54 64
e 54 69
e 55 60
e 55 65
e 55 84
e 56 72
e 56 79
e 57 58
e 57 62
e 58 63
e 58 68
e 59 64
e 59 81
e 60 64
e 60 74
e 61 79
e 62 75
e 63 64
e 63 72
e 63 77
e 64 68
e 65 68
e 65 69
e 65 75
e 65 77
e 65 81
e 66 72
e 68 71
e 68 84
e 69 71
e 69 73
e 69 78
e 70 83
e 71 82
e 72 83
e 73 84
e 74 82
e 79 83
e 80 82
e 83 84
